c 105_3_checker_6cl.cnf
c
c field = 105
c formula set type = 3_checker_6cl
c
p cnf 6 16
118 
148 
178 
-89 
-58 
-238 
119 
149 
179 
-88 
-59 
-239 
118 
148 
178 
-239 
-88 
-268 
119 
149 
179 
-238 
-89 
-269 
148 
178 
238 
-119 
-88 
-268 
149 
179 
239 
-118 
-89 
-269 
148 
178 
238 
-269 
-118 
-298 
149 
179 
239 
-268 
-119 
-299 
178 
238 
268 
-149 
-118 
-298 
179 
239 
269 
-148 
-119 
-299 
178 
238 
268 
-299 
-148 
-328 
179 
239 
269 
-298 
-149 
-329 
238 
268 
298 
-179 
-148 
-328 
239 
269 
299 
-178 
-149 
-329 
238 
268 
298 
-329 
-178 
-358 
239 
269 
299 
-328 
-179 
-359 
